1 1252 7
2 1115 7
3 1087 6
7 1078 6
9 1068 6
11 1058 6
16 1052 6
18 1018 6
87 1017 6
221 1013 6
252 997 6
545 996 6
735 994 6
784 991 6
981 989 6



1 1219 6
2 1135 6
5 1062 6
10 1017 6
209 1010 6
416 983 6



1 1272 7
2 1063 6
8 1055 6
11 1049 6
41 1042 6
50 1017 6
169 977 6



1 1271 7
2 1160 7
3 1092 6
9 1004 6
185 993 6
570 992 6



1 1156 6
2 1150 6
3 1142 7
4 1091 6
5 1088 6
9 1049 6
21 1039 6
23 1007 6
349 1002 6
681 973 6



